\ LP format - for model browsing. Use MPS format to capture full model detail.
Minimize
  75 C0(3) + 90 C1(3) + 140 C2(3) + 60 C3(3) + 212 C4(3) + 98 C5(3)
   + 113 C6(3) - 40000 C7(14) - 5 C8(14) - 70 C9(21)
Subject To
 c0: - C0(3) + 310 C7(14) + 0.01 C8(14) + 0.050761421319797 C9(21) <= -503
 c1: - C0(3) + 50 C7(14) + 0.04 C8(14) + 0.1015228426395939 C9(21) <= -140
 c2: - C0(3) + 0.1205583756345178 C9(21) <= -203
 c3: - C1(3) + 198 C7(14) + 0.03 C8(14) + 0.0697969543147208 C9(21)
   <= -675
 c4: - C1(3) + 46 C7(14) + 0.06 C8(14) + 0.0761421319796954 C9(21) <= -100
 c5: - C1(3) + 0.08248730964467 C9(21) <= -45
 c6: - C2(3) + 210 C7(14) + 0.04 C8(14) + 0.0571065989847716 C9(21)
   <= -630
 c7: - C2(3) + 57 C7(14) + 0.07 C8(14) + 0.0697969543147208 C9(21) <= -105
 c8: - C2(3) + 0.0761421319796954 C9(21) <= -40
 c9: - C3(3) + 112 C7(14) + 0.01 C8(14) + 0.0380710659898477 C9(21)
   <= -330
 c10: - C3(3) + 30 C7(14) + 0.02 C8(14) + 0.0444162436548223 C9(21) <= -40
 c11: - C3(3) + 0.1142131979695431 C9(21) <= -295
 c12: - C4(3) + 40 C7(14) + 0.05 C8(14) + 0.0761421319796954 C9(21)
   <= -105
 c13: - C4(3) + 32 C7(14) + 0.08 C8(14) + 0.0761421319796954 C9(21)
   <= -460
 c14: - C4(3) + 0.0888324873096447 C9(21) <= -120
 c15: - C5(3) + 105 C7(14) + 0.02 C8(14) + 0.0444162436548223 C9(21)
   <= -490
 c16: - C5(3) + 25 C7(14) + 0.03 C8(14) + 0.0634517766497462 C9(21) <= -55
 c17: - C5(3) + 0.0951776649746193 C9(21) <= -180
 c18: - C6(3) + 213 C7(14) + 0.02 C8(14) + 0.050761421319797 C9(21)
   <= -705
 c19: - C6(3) + 40 C7(14) + 0.04 C8(14) + 0.0571065989847716 C9(21) <= -60
 c20: - C6(3) + 0.1205583756345178 C9(21) <= -400
Bounds
 C0(3) free
 C1(3) free
 C2(3) free
 C3(3) free
 C4(3) free
 C5(3) free
 C6(3) free
End
